100
120
100
100
98
95
94
94
93
93
93
92
90
90
90
89
88
87
87
86
86
84
84
83
82
82
81
80
79
79
79
77
77
76
75
75
75
75
74
73
71
69
69
68
65
63
60
59
59
58
57
57
56
56
56
56
55
55
54
54
54
54
50
50
49
48
48
48
45
45
44
44
43
43
39
38
38
37
37
37
37
36
36
33
33
31
29
28
27
27
26
26
26
26
25
25
25
23
23
23
22
22
